1374972
0,97,33,51,28,45,58,83,50,1,80,93,106,15,24,19,82,2,89,23,108,9,88,90,10,48,76,65,8,36,25,37,40,30,71,74,56,85,26,68,69,13,38,7,35,27,39,67,32,77,105,107,87,17,72,61,104,98,70,46,6,64,11,59,54,41,49,75,18,86,95,92,12,20,47,79,16,52,99,101,57,53,96,103,21,63,22,14,73,55,102,91,3,66,78,29,5,60,94,31,42,84,43,62,44,81,4,34,100,0